NAME : random588915
COMMENT: random generated with id 588915
TYPE : TSP
DIMENSION : 33
EDGE_WEIGHT_TYPE : EUC_2D
NODE_COORD_SECTION
1 19.326150 7.632991
2 9.242131 1.214710
3 18.559808 1.921217
4 5.326794 6.911325
5 19.808911 14.592959
6 15.347110 11.633115
7 16.834611 14.672672
8 5.583566 6.450640
9 6.058120 0.678052
10 6.287779 10.562434
11 2.879404 10.188139
12 11.533995 16.830950
13 13.273908 13.833413
14 4.865188 0.225188
15 2.243519 8.491955
16 3.566049 1.569669
17 16.124946 12.808180
18 2.784379 14.684754
19 14.729396 8.111173
20 1.596079 14.538307
21 2.704132 16.943189
22 6.171422 19.538743
23 11.615861 11.754989
24 5.989383 17.673980
25 12.433041 12.277163
26 8.236415 15.312445
27 2.465302 19.770409
28 12.143395 15.739210
29 13.603822 17.008583
30 15.964398 15.847341
31 5.500539 19.530446
32 17.417009 1.625485
33 12.338626 0.201388
EOF
